words_hard_train/4413.qaiger
aag 103 16 0 1 87
2
4
8
12
16
18
28
42
44
48
52
56
60
72
80
182
207
6 3 5
10 6 9
14 10 13
20 16 19
22 14 20
24 10 17
26 24 13
30 27 28
32 26 29
34 31 33
36 23 35
38 22 34
40 37 39
46 43 45
50 46 49
54 50 53
58 54 57
62 59 60
64 58 61
66 63 65
68 41 67
70 39 33
74 70 72
76 71 73
78 75 77
82 65 80
84 64 81
86 83 85
88 79 87
90 69 89
92 40 66
94 16 18
96 95 10
98 97 12
100 96 13
102 99 101
104 55 56
106 105 59
108 102 106
110 93 109
112 95 3
114 112 9
116 115 4
118 117 97
120 51 52
122 121 55
124 119 123
126 118 122
128 42 44
130 129 47
132 17 18
134 133 42
136 134 21
138 131 137
140 139 113
142 94 2
144 140 143
146 136 45
148 145 147
150 113 8
152 151 115
154 47 48
156 155 51
158 153 157
160 149 159
162 127 161
164 152 156
166 162 165
168 125 167
170 103 107
172 168 171
174 110 173
176 90 175
178 78 86
180 177 179
184 181 182
186 77 19
188 76 18
190 187 189
192 190 84
194 184 192
196 185 193
198 180 183
200 191 85
202 199 201
204 196 203
206 195 205
i0 1 x2[1]
i1 1 x2[3]
i2 1 x2[2]
i3 1 x2[4]
i4 1 x2[0]
i5 1 x2[7]
i6 1 x2[5]
i7 2 y1[0]
i8 2 y1[1]
i9 2 y1[2]
i10 2 y1[3]
i11 2 y1[4]
i12 2 y1[5]
i13 1 x2[6]
i14 2 y1[6]
i15 2 y1[7]
o0 bv[0]
c
simplified
  <
    subtract
      add
        >> 7
          1 x2
        1
      1 x2
    2 y1
