words_hard_train/4413.qaiger.qdimacs
p cnf 103 262
a 1 2 4 36 6 8 9 14 0
e 3 5 7 10 11 12 13 15 16 17 18 19 20 21 22 23 24 25 26 27 28 29 30 31 32 33 34 35 37 38 39 40 41 42 43 44 45 46 47 48 49 50 51 52 53 54 55 56 57 58 59 60 61 62 63 64 65 66 67 68 69 70 71 72 73 74 75 76 77 78 79 80 81 82 83 84 85 86 87 88 89 90 91 92 93 94 95 96 97 98 99 100 101 102 103 0
1 2 3 0
-1 -3 0
-2 -3 0
-3 4 5 0
3 -5 0
-4 -5 0
-5 6 7 0
5 -7 0
-6 -7 0
-8 9 10 0
8 -10 0
-9 -10 0
-7 -10 11 0
7 -11 0
10 -11 0
-5 8 12 0
5 -12 0
-8 -12 0
-12 6 13 0
12 -13 0
-6 -13 0
13 -14 15 0
-13 -15 0
14 -15 0
-13 14 16 0
13 -16 0
-14 -16 0
15 16 17 0
-15 -17 0
-16 -17 0
11 17 18 0
-11 -18 0
-17 -18 0
-11 -17 19 0
11 -19 0
17 -19 0
18 19 20 0
-18 -20 0
-19 -20 0
21 22 23 0
-21 -23 0
-22 -23 0
-23 24 25 0
23 -25 0
-24 -25 0
-25 26 27 0
25 -27 0
-26 -27 0
-27 28 29 0
27 -29 0
-28 -29 0
29 -30 31 0
-29 -31 0
30 -31 0
-29 30 32 0
29 -32 0
-30 -32 0
31 32 33 0
-31 -33 0
-32 -33 0
20 33 34 0
-20 -34 0
-33 -34 0
19 16 35 0
-19 -35 0
-16 -35 0
-35 -36 37 0
35 -37 0
36 -37 0
35 36 38 0
-35 -38 0
-36 -38 0
37 38 39 0
-37 -39 0
-38 -39 0
32 -40 41 0
-32 -41 0
40 -41 0
-32 40 42 0
32 -42 0
-40 -42 0
41 42 43 0
-41 -43 0
-42 -43 0
39 43 44 0
-39 -44 0
-43 -44 0
34 44 45 0
-34 -45 0
-44 -45 0
-20 -33 46 0
20 -46 0
33 -46 0
-8 -9 47 0
8 -47 0
9 -47 0
47 -5 48 0
-47 -48 0
5 -48 0
48 -6 49 0
-48 -49 0
6 -49 0
-48 6 50 0
48 -50 0
-6 -50 0
49 50 51 0
-49 -51 0
-50 -51 0
27 -28 52 0
-27 -52 0
28 -52 0
52 29 53 0
-52 -53 0
-29 -53 0
-51 -53 54 0
51 -54 0
53 -54 0
46 54 55 0
-46 -55 0
-54 -55 0
47 1 56 0
-47 -56 0
-1 -56 0
-56 4 57 0
56 -57 0
-4 -57 0
57 -2 58 0
-57 -58 0
2 -58 0
58 48 59 0
-58 -59 0
-48 -59 0
25 -26 60 0
-25 -60 0
26 -60 0
60 27 61 0
-60 -61 0
-27 -61 0
59 61 62 0
-59 -62 0
-61 -62 0
-59 -61 63 0
59 -63 0
61 -63 0
-21 -22 64 0
21 -64 0
22 -64 0
64 23 65 0
-64 -65 0
-23 -65 0
8 -9 66 0
-8 -66 0
9 -66 0
66 -21 67 0
-66 -67 0
21 -67 0
-67 10 68 0
67 -68 0
-10 -68 0
65 68 69 0
-65 -69 0
-68 -69 0
69 56 70 0
-69 -70 0
-56 -70 0
-47 -1 71 0
47 -71 0
1 -71 0
-70 71 72 0
70 -72 0
-71 -72 0
-68 22 73 0
68 -73 0
-22 -73 0
72 73 74 0
-72 -74 0
-73 -74 0
56 -4 75 0
-56 -75 0
4 -75 0
75 57 76 0
-75 -76 0
-57 -76 0
23 -24 77 0
-23 -77 0
24 -77 0
77 25 78 0
-77 -78 0
-25 -78 0
76 78 79 0
-76 -79 0
-78 -79 0
74 79 80 0
-74 -80 0
-79 -80 0
63 80 81 0
-63 -81 0
-80 -81 0
-76 -78 82 0
76 -82 0
78 -82 0
-81 82 83 0
81 -83 0
-82 -83 0
62 83 84 0
-62 -84 0
-83 -84 0
51 53 85 0
-51 -85 0
-53 -85 0
-84 85 86 0
84 -86 0
-85 -86 0
-55 86 87 0
55 -87 0
-86 -87 0
-45 87 88 0
45 -88 0
-87 -88 0
-39 -43 89 0
39 -89 0
43 -89 0
88 89 90 0
-88 -90 0
-89 -90 0
90 -91 92 0
-90 -92 0
91 -92 0
38 9 93 0
-38 -93 0
-9 -93 0
-38 -9 94 0
38 -94 0
9 -94 0
93 94 95 0
-93 -95 0
-94 -95 0
-95 -42 96 0
95 -96 0
42 -96 0
-92 -96 97 0
92 -97 0
96 -97 0
92 96 98 0
-92 -98 0
-96 -98 0
-90 91 99 0
90 -99 0
-91 -99 0
95 42 100 0
-95 -100 0
-42 -100 0
99 100 101 0
-99 -101 0
-100 -101 0
-98 101 102 0
98 -102 0
-101 -102 0
97 102 103 0
-97 -103 0
-102 -103 0
-103 0
